\* Problem_2 *\
Minimize
OBJ: 8 Manganese + 26 Pig_A + 30 Pig_B + 20 Pig_C
Subject To
_C1: Manganese + 1000 Pig_A + 1000 Pig_B + 1000 Pig_C = 1000
_C2: Manganese + 4.5 Pig_A + 5 Pig_B + 4 Pig_C >= 4.5
_C3: 40 Pig_A + 10 Pig_B + 6 Pig_C >= 32.5
_C4: 40 Pig_A + 10 Pig_B + 6 Pig_C <= 55
End
